NPROCS=0
This instance is clustered!
Gurobi Optimizer version 9.0.0 build v9.0.0rc2 (linux64)
Optimize a model with 48 rows, 577 columns and 1152 nonzeros
Model fingerprint: 0xf6a44297
Variable types: 1 continuous, 576 integer (576 binary)
Coefficient statistics:
  Matrix range     [1e+00, 1e+00]
  Objective range  [1e+00, 6e+02]
  Bounds range     [1e+00, 1e+00]
  RHS range        [1e+00, 1e+00]
Presolve removed 2 rows and 69 columns
Presolve time: 0.00s
Presolved: 46 rows, 508 columns, 1014 nonzeros
Variable types: 1 continuous, 507 integer (507 binary)

Root relaxation: objective 1.480993e+03, 46 iterations, 0.00 seconds

    Nodes    |    Current Node    |     Objective Bounds      |     Work
 Expl Unexpl |  Obj  Depth IntInf | Incumbent    BestBd   Gap | It/Node Time

     0     0 1525.57915    0   35          - 1525.57915      -     -    0s
 done with super cut 0
 done with super cut 1
H    0     0                    2000.6212556 1525.57915  23.7%     -    1s
     0     0 1545.97723    0   11 2000.62126 1545.97723  22.7%     -    1s
 done with super cut 2
 done with super cut 3
 done with super cut 4
 done with super cut 5
H    0     0                    1773.9472598 1552.37084  12.5%     -    6s
     0     0 1579.41662    0   51 1773.94726 1579.41662  11.0%     -    6s
 done with super cut 6
     0     0 1597.92898    0   49 1773.94726 1597.92898  9.92%     -    8s
     0     0 1599.04732    0   33 1773.94726 1599.04732  9.86%     -    8s
     0     0 1601.61760    0   44 1773.94726 1601.61760  9.71%     -    8s
     0     0 1601.63959    0   45 1773.94726 1601.63959  9.71%     -    8s
     0     0 1606.99805    0   51 1773.94726 1606.99805  9.41%     -    8s
     0     0 1607.01125    0   52 1773.94726 1607.01125  9.41%     -    8s
     0     0 1607.01125    0   52 1773.94726 1607.01125  9.41%     -    8s
     0     0 1615.77374    0   51 1773.94726 1615.77374  8.92%     -    8s
     0     0 1615.77374    0   50 1773.94726 1615.77374  8.92%     -    8s
     0     0 1615.77374    0   52 1773.94726 1615.77374  8.92%     -    8s
     0     0 1615.77374    0   51 1773.94726 1615.77374  8.92%     -    8s
     0     0 1617.53023    0   48 1773.94726 1617.53023  8.82%     -    8s
 done with super cut 7
     0     0 1617.90737    0   43 1773.94726 1617.90737  8.80%     -   10s
     0     0 1620.20659    0   49 1773.94726 1620.20659  8.67%     -   10s
 done with super cut 8
     0     0 1621.01796    0   53 1773.94726 1621.01796  8.62%     -   15s
     0     0 1621.06990    0   53 1773.94726 1621.06990  8.62%     -   15s
     0     0 1621.06990    0   53 1773.94726 1621.06990  8.62%     -   15s
 done with super cut 9
     0     2 1621.06990    0   53 1773.94726 1621.06990  8.62%     -   15s
 done with super cut 10
     7    12 1643.10143    3   48 1773.94726 1635.89955  7.78%  18.7   21s

Cutting planes:
  Gomory: 5
  MIR: 2
  Zero half: 7
  RLT: 1
  Lazy constraints: 49

Explored 673 nodes (6360 simplex iterations) in 21.14 seconds
Thread count was 12 (of 12 available processors)

Solution count 2: 1773.95 2000.62 

Optimal solution found (tolerance 1.00e-04)
Best objective 1.773947259798e+03, best bound 1.773947259798e+03, gap 0.0000%

User-callback calls 1723, time in user-callback 20.87 sec
/projects/academic/josewalt/caigao/RRARP_BD/BendersDecomp/ret/model_outs/n_22_e_7_algo_4.out
 =====>>>>> Solution is written to file in <../ret/model_outs> !!!
===>> All Done!
